1651484460
1651499940
1651569960
1651583100
1651749780
1651765620
1651831860
1651841880
1652090280
1652105820
1652176860
1652191380
1652263020
1652277840
1652349600
1652360580
1652435940
1652450520
1652695080
1652711400
1652784120
1652798400
1652867820
1652885460
1652954760
1652969640
1653040620
1653058020
1653228000
1653237000
1653299760
1653314940
1653386220
1653401100
1653472560
1653490320
1653645120
1653661440
1653904800
1653920580
1653991140
1654007220
